5
16
0 27 45 66 83 92 93 71 57 31 44 33 20 4 3 1
24
0 14 42 49 48 55 90 86 78 67 65 72 73 64 63 54 39 38 47 37 28 19 18 9
20
0 6 7 8 5 17 24 51 61 70 69 89 95 84 82 74 59 41 12 2
17
0 13 22 25 34 43 29 62 79 75 91 81 58 56 46 36 10
26
0 21 30 40 50 80 98 97 88 87 96 94 85 76 77 68 60 52 53 32 23 35 26 16 15 11
